c Reduced graph for GEOM40 generated by Cyril Grelier
p edge 24 46
e 1 12
e 1 13
e 1 15
e 1 16
e 1 19
e 2 11
e 2 14
e 2 17
e 2 20
e 3 8
e 3 9
e 3 18
e 4 17
e 4 18
e 5 23
e 6 7
e 6 10
e 6 21
e 6 22
e 6 24
e 7 10
e 7 21
e 7 22
e 7 24
e 8 9
e 10 21
e 10 22
e 10 24
e 11 12
e 11 14
e 11 17
e 11 20
e 12 14
e 12 19
e 13 15
e 13 16
e 13 19
e 14 20
e 15 16
e 15 19
e 15 20
e 16 19
e 19 20
e 21 22
e 21 24
e 22 24
